NAME: ./prFile/tspFile/tsp_file76.tsp
COMMENT: TSP file generated by Python
TYPE: TSP
DIMENSION: 40
EDGE_WEIGHT_TYPE: EUC_2D
NODE_COORD_SECTION
1 5 81
2 65 18
3 8 9
4 34 6
5 100 46
6 63 45
7 58 68
8 1 6
9 32 47
10 63 58
11 50 23
12 32 26
13 76 36
14 77 9
15 94 65
16 70 78
17 19 93
18 48 100
19 45 100
20 94 69
21 17 30
22 81 22
23 97 66
24 57 79
25 68 2
26 39 69
27 34 39
28 9 29
29 35 93
30 82 34
31 3 78
32 19 14
33 5 90
34 29 52
35 90 47
36 99 63
37 74 44
38 72 32
39 77 99
40 95 50
EOF
